s td 18 5 20
b 1 7 12
b 2 4 9
b 3 16 19
b 4 13 20
b 5 6 13
b 6 2 6 10
b 7 6 10 18
b 8 12 16 17
b 9 1 3 8 15
b 10 4 16 17
b 11 4 14 17
b 12 4 5 6 8
b 13 1 3 4 6 8
b 14 1 4 6 8 14
b 15 1 4 6 14 18
b 16 4 6 14 18
b 17 6 14 18
b 18 11
1 8
1 18
2 16
3 10
4 5
5 17
6 7
7 17
8 10
9 13
10 11
11 16
12 14
13 14
14 15
15 16
16 17
